; SWAP1 SWAP1 => 
(set-option :produce-proofs true)
; 
(set-info :status unknown)
(declare-fun storage_t ((_ BitVec 256) (_ BitVec 256) Int (_ BitVec 256)) (_ BitVec 256))
(declare-fun storage_s ((_ BitVec 256) (_ BitVec 256) Int (_ BitVec 256)) (_ BitVec 256))
(declare-fun exc_halt_t (Int) Bool)
(declare-fun exc_halt_s (Int) Bool)
(declare-fun sc_t (Int) (_ BitVec 6))
(declare-fun stack_t ((_ BitVec 256) (_ BitVec 256) Int (_ BitVec 6)) (_ BitVec 256))
(declare-fun stack_s ((_ BitVec 256) (_ BitVec 256) Int (_ BitVec 6)) (_ BitVec 256))
(declare-fun sc_s (Int) (_ BitVec 6))
(declare-fun used_gas_t ((_ BitVec 256) (_ BitVec 256) Int) Int)
(declare-fun used_gas_s ((_ BitVec 256) (_ BitVec 256) Int) Int)
(assert
 (exists ((x_0 (_ BitVec 256)) (x_1 (_ BitVec 256)) )(let (($x9407 (forall ((w (_ BitVec 256)) )(let ((?x11393 (storage_t x_0 x_1 0 w)))
 (let ((?x206 (storage_s x_0 x_1 2 w)))
 (= ?x206 ?x11393))))
 ))
 (let (($x56 (exc_halt_t 0)))
 (let (($x989 (exc_halt_s 2)))
 (let (($x4500 (= $x989 $x56)))
 (let (($x181 (forall ((n (_ BitVec 6)) )(let ((?x63 (sc_t 0)))
 (let (($x8253 (bvsle ?x63 n)))
 (let ((?x4504 (stack_t x_0 x_1 0 n)))
 (let ((?x3460 (stack_s x_0 x_1 2 n)))
 (let (($x4243 (= ?x3460 ?x4504)))
 (or $x4243 $x8253)))))))
 ))
 (let ((?x63 (sc_t 0)))
 (let ((?x4659 (sc_s 2)))
 (let (($x1014 (= ?x4659 ?x63)))
 (let ((?x10121 (used_gas_s x_0 x_1 0)))
 (let (($x5216 (= ?x10121 (used_gas_t x_0 x_1 0))))
 (let (($x11603 (forall ((w (_ BitVec 256)) )(let ((?x11393 (storage_t x_0 x_1 0 w)))
 (let ((?x11577 (storage_s x_0 x_1 0 w)))
 (= ?x11577 ?x11393))))
 ))
 (let (($x57 (exc_halt_s 0)))
 (let (($x58 (= $x57 $x56)))
 (let (($x8980 (forall ((n (_ BitVec 6)) )(let ((?x4504 (stack_t x_0 x_1 0 n)))
 (let ((?x108 (stack_s x_0 x_1 0 n)))
 (let (($x11898 (= ?x108 ?x4504)))
 (let ((?x63 (sc_t 0)))
 (let (($x8253 (bvsle ?x63 n)))
 (or $x8253 $x11898)))))))
 ))
 (let ((?x72 (sc_s 0)))
 (let (($x73 (= ?x72 ?x63)))
 (let (($x1675 (= $x989 (or (exc_halt_s 1) (not (bvsle (_ bv0 6) (bvadd (_ bv62 6) (sc_s 1))))))))
 (let (($x2543 (forall ((w (_ BitVec 256)) )(let ((?x3270 (storage_s x_0 x_1 1 w)))
 (let ((?x206 (storage_s x_0 x_1 2 w)))
 (= ?x206 ?x3270))))
 ))
 (let (($x1292 (forall ((n (_ BitVec 6)) )(let ((?x154 (sc_s 1)))
 (let ((?x7488 (bvadd (_ bv62 6) ?x154)))
 (let (($x10759 (bvsle ?x7488 n)))
 (or (= (stack_s x_0 x_1 2 n) (stack_s x_0 x_1 1 n)) $x10759)))))
 ))
 (let ((?x154 (sc_s 1)))
 (let (($x6104 (= ?x4659 ?x154)))
 (let (($x11407 (= (used_gas_s x_0 x_1 2) (+ 3 (used_gas_s x_0 x_1 1)))))
 (let ((?x10606 (bvadd (_ bv63 6) ?x154)))
 (let ((?x3421 (stack_s x_0 x_1 1 ?x10606)))
 (let ((?x7488 (bvadd (_ bv62 6) ?x154)))
 (let ((?x4301 (stack_s x_0 x_1 1 ?x7488)))
 (let (($x7061 (exc_halt_s 1)))
 (let (($x3230 (= $x7061 (or $x57 (not (bvsle (_ bv0 6) (bvadd (_ bv62 6) ?x72)))))))
 (let (($x7586 (forall ((w (_ BitVec 256)) )(let ((?x11577 (storage_s x_0 x_1 0 w)))
 (let ((?x3270 (storage_s x_0 x_1 1 w)))
 (= ?x3270 ?x11577))))
 ))
 (let (($x3754 (forall ((n (_ BitVec 6)) )(let ((?x72 (sc_s 0)))
 (let ((?x1178 (bvadd (_ bv62 6) ?x72)))
 (let (($x4575 (bvsle ?x1178 n)))
 (or (= (stack_s x_0 x_1 1 n) (stack_s x_0 x_1 0 n)) $x4575)))))
 ))
 (let (($x7813 (= ?x154 ?x72)))
 (let (($x10806 (forall ((w (_ BitVec 256)) )(let ((?x11577 (storage_s x_0 x_1 0 w)))
 (= ?x11577 (_ bv0 256))))
 ))
 (let (($x1551 (= ?x10121 0)))
 (let (($x11062 (not $x57)))
 (let (($x1805 (= (stack_s x_0 x_1 0 (_ bv1 6)) x_1)))
 (let (($x28 (= (stack_s x_0 x_1 0 (_ bv0 6)) x_0)))
 (let (($x11128 (= ?x72 (_ bv2 6))))
 (and $x11128 $x28 $x1805 $x11062 $x1551 $x10806 (= ?x3421 (stack_s x_0 x_1 0 (bvadd (_ bv62 6) ?x72))) (= ?x4301 (stack_s x_0 x_1 0 (bvadd (_ bv63 6) ?x72))) (= (used_gas_s x_0 x_1 1) (+ 3 ?x10121)) $x7813 $x3754 $x7586 $x3230 (= (stack_s x_0 x_1 2 (bvadd (_ bv63 6) ?x4659)) ?x4301) (= (stack_s x_0 x_1 2 (bvadd (_ bv62 6) ?x4659)) ?x3421) $x11407 $x6104 $x1292 $x2543 $x1675 $x73 $x8980 $x58 $x11603 $x5216 (not (and $x1014 $x181 $x4500 $x9407)))))))))))))))))))))))))))))))))))))))))
 )
(check-sat)
(get-proof)
